p tdp 20 39
1 5
1 9
2 4
2 7
2 14
3 6
3 7
3 12
3 14
3 16
3 18
4 9
4 12
4 14
4 20
5 8
5 14
5 18
6 9
6 14
6 20
7 18
7 19
8 10
8 18
9 11
9 12
10 12
11 16
11 18
12 16
12 20
13 14
13 15
15 17
15 18
16 19
17 18
19 20
